p cnf 400 1
400 0
w 1 0.485498
w 2 1 0.0884245
w 2 -1 0.387685
w 3 2 0
w 3 -2 1
w 4 3 0.250139
w 4 -3 0.522769
w 5 4 0.94627
w 5 -4 0.187804
w 6 5 0.930954
w 6 -5 0.0859204
w 7 6 0.962486
w 7 -6 0.244694
w 8 7 1
w 8 -7 0
w 9 8 0
w 9 -8 1
w 10 9 0.78648
w 10 -9 0.929478
w 11 10 0.681654
w 11 -10 0.643792
w 12 11 1
w 12 -11 0
w 13 12 0.81113
w 13 -12 0.533872
w 14 13 0
w 14 -13 1
w 15 14 0.983983
w 15 -14 0.190738
w 16 15 0.506752
w 16 -15 0.180272
w 17 16 0.694556
w 17 -16 0.024545
w 18 17 0.780476
w 18 -17 0.741945
w 19 18 0.0251699
w 19 -18 0.14826
w 20 19 0.362731
w 20 -19 0.359011
w 21 1 0.149212
w 21 -1 0.288489
w 22 21 2 0.830865
w 22 21 -2 0.932281
w 22 -21 2 0.128003
w 22 -21 -2 0.696654
w 23 22 3 0.939133
w 23 22 -3 0.230525
w 23 -22 3 0.905692
w 23 -22 -3 0.137949
w 24 23 4 0.889675
w 24 23 -4 0.328687
w 24 -23 4 0.728509
w 24 -23 -4 0.396427
w 25 24 5 0.54884
w 25 24 -5 0.0909825
w 25 -24 5 0.533504
w 25 -24 -5 0.300125
w 26 25 6 0.275448
w 26 25 -6 0.0138953
w 26 -25 6 0.896629
w 26 -25 -6 0.423709
w 27 26 7 0.25936
w 27 26 -7 0.78272
w 27 -26 7 0.862692
w 27 -26 -7 0.408572
w 28 27 8 1
w 28 27 -8 0
w 28 -27 8 0
w 28 -27 -8 1
w 29 28 9 0.878263
w 29 28 -9 0.732198
w 29 -28 9 0.166617
w 29 -28 -9 0.783955
w 30 29 10 0.0210644
w 30 29 -10 0.67363
w 30 -29 10 0.198834
w 30 -29 -10 0.749573
w 31 30 11 0
w 31 30 -11 1
w 31 -30 11 0
w 31 -30 -11 1
w 32 31 12 0.0324976
w 32 31 -12 0.516744
w 32 -31 12 0.612434
w 32 -31 -12 0.929126
w 33 32 13 0.589376
w 33 32 -13 0.188487
w 33 -32 13 0.723173
w 33 -32 -13 0.452067
w 34 33 14 0.794381
w 34 33 -14 0.117129
w 34 -33 14 0.836496
w 34 -33 -14 0.797871
w 35 34 15 0.772587
w 35 34 -15 0.676134
w 35 -34 15 0.642393
w 35 -34 -15 0.939204
w 36 35 16 0
w 36 35 -16 0
w 36 -35 16 0
w 36 -35 -16 1
w 37 36 17 1
w 37 36 -17 1
w 37 -36 17 1
w 37 -36 -17 0
w 38 37 18 0.397311
w 38 37 -18 0.177206
w 38 -37 18 0.219227
w 38 -37 -18 0.326438
w 39 38 19 0
w 39 38 -19 0
w 39 -38 19 0
w 39 -38 -19 1
w 40 39 20 1
w 40 39 -20 0
w 40 -39 20 1
w 40 -39 -20 1
w 41 21 0.109218
w 41 -21 0.930387
w 42 41 22 0.569307
w 42 41 -22 0.442927
w 42 -41 22 0.620537
w 42 -41 -22 0.703026
w 43 42 23 1
w 43 42 -23 1
w 43 -42 23 0
w 43 -42 -23 0
w 44 43 24 1
w 44 43 -24 1
w 44 -43 24 0
w 44 -43 -24 0
w 45 44 25 1
w 45 44 -25 0
w 45 -44 25 0
w 45 -44 -25 0
w 46 45 26 1
w 46 45 -26 1
w 46 -45 26 0
w 46 -45 -26 0
w 47 46 27 1
w 47 46 -27 1
w 47 -46 27 1
w 47 -46 -27 0
w 48 47 28 0.116449
w 48 47 -28 0.273036
w 48 -47 28 0.57262
w 48 -47 -28 0.819475
w 49 48 29 0
w 49 48 -29 1
w 49 -48 29 1
w 49 -48 -29 1
w 50 49 30 0
w 50 49 -30 1
w 50 -49 30 1
w 50 -49 -30 0
w 51 50 31 0.174661
w 51 50 -31 0.32497
w 51 -50 31 0.172469
w 51 -50 -31 0.544287
w 52 51 32 0.794739
w 52 51 -32 0.549127
w 52 -51 32 0.170625
w 52 -51 -32 0.365489
w 53 52 33 0.0703469
w 53 52 -33 0.657303
w 53 -52 33 0.534194
w 53 -52 -33 0.900456
w 54 53 34 0.650643
w 54 53 -34 0.173492
w 54 -53 34 0.182007
w 54 -53 -34 0.470119
w 55 54 35 0.0850058
w 55 54 -35 0.196395
w 55 -54 35 0.601631
w 55 -54 -35 0.326638
w 56 55 36 0
w 56 55 -36 0
w 56 -55 36 1
w 56 -55 -36 1
w 57 56 37 0.523284
w 57 56 -37 0.65689
w 57 -56 37 0.190378
w 57 -56 -37 0.695753
w 58 57 38 1
w 58 57 -38 0
w 58 -57 38 1
w 58 -57 -38 0
w 59 58 39 0.737356
w 59 58 -39 0.990248
w 59 -58 39 0.513284
w 59 -58 -39 0.27155
w 60 59 40 0.122671
w 60 59 -40 0.922193
w 60 -59 40 0.0641957
w 60 -59 -40 0.304678
w 61 41 0
w 61 -41 1
w 62 61 42 0
w 62 61 -42 1
w 62 -61 42 1
w 62 -61 -42 0
w 63 62 43 1
w 63 62 -43 1
w 63 -62 43 0
w 63 -62 -43 1
w 64 63 44 0
w 64 63 -44 1
w 64 -63 44 1
w 64 -63 -44 1
w 65 64 45 1
w 65 64 -45 1
w 65 -64 45 0
w 65 -64 -45 1
w 66 65 46 0.945229
w 66 65 -46 0.722892
w 66 -65 46 0.202524
w 66 -65 -46 0.835932
w 67 66 47 0.124717
w 67 66 -47 0.900128
w 67 -66 47 0.15024
w 67 -66 -47 0.517029
w 68 67 48 0.539923
w 68 67 -48 0.105735
w 68 -67 48 0.831808
w 68 -67 -48 0.256245
w 69 68 49 0.934826
w 69 68 -49 0.486262
w 69 -68 49 0.532825
w 69 -68 -49 0.520073
w 70 69 50 0.700205
w 70 69 -50 0.76221
w 70 -69 50 0.867493
w 70 -69 -50 0.563339
w 71 70 51 0
w 71 70 -51 0
w 71 -70 51 1
w 71 -70 -51 1
w 72 71 52 0
w 72 71 -52 1
w 72 -71 52 1
w 72 -71 -52 1
w 73 72 53 0.657359
w 73 72 -53 0.538844
w 73 -72 53 0.845266
w 73 -72 -53 0.174388
w 74 73 54 1
w 74 73 -54 0
w 74 -73 54 0
w 74 -73 -54 0
w 75 74 55 0
w 75 74 -55 1
w 75 -74 55 1
w 75 -74 -55 1
w 76 75 56 0.401881
w 76 75 -56 0.152913
w 76 -75 56 0.576878
w 76 -75 -56 0.96522
w 77 76 57 1
w 77 76 -57 1
w 77 -76 57 0
w 77 -76 -57 0
w 78 77 58 1
w 78 77 -58 1
w 78 -77 58 1
w 78 -77 -58 0
w 79 78 59 0.553249
w 79 78 -59 0.2777
w 79 -78 59 0.317349
w 79 -78 -59 0.398515
w 80 79 60 0
w 80 79 -60 1
w 80 -79 60 1
w 80 -79 -60 1
w 81 61 1
w 81 -61 0
w 82 81 62 1
w 82 81 -62 0
w 82 -81 62 0
w 82 -81 -62 1
w 83 82 63 0
w 83 82 -63 0
w 83 -82 63 1
w 83 -82 -63 1
w 84 83 64 0
w 84 83 -64 1
w 84 -83 64 0
w 84 -83 -64 0
w 85 84 65 0.795347
w 85 84 -65 0.719008
w 85 -84 65 0.595453
w 85 -84 -65 0.573852
w 86 85 66 0
w 86 85 -66 0
w 86 -85 66 1
w 86 -85 -66 1
w 87 86 67 1
w 87 86 -67 0
w 87 -86 67 1
w 87 -86 -67 1
w 88 87 68 0.897471
w 88 87 -68 0.432453
w 88 -87 68 0.561255
w 88 -87 -68 0.515951
w 89 88 69 0.565876
w 89 88 -69 0.287344
w 89 -88 69 0.533773
w 89 -88 -69 0.535717
w 90 89 70 0
w 90 89 -70 0
w 90 -89 70 1
w 90 -89 -70 0
w 91 90 71 0
w 91 90 -71 1
w 91 -90 71 0
w 91 -90 -71 0
w 92 91 72 0
w 92 91 -72 0
w 92 -91 72 1
w 92 -91 -72 1
w 93 92 73 0
w 93 92 -73 0
w 93 -92 73 0
w 93 -92 -73 1
w 94 93 74 1
w 94 93 -74 1
w 94 -93 74 0
w 94 -93 -74 0
w 95 94 75 1
w 95 94 -75 0
w 95 -94 75 1
w 95 -94 -75 0
w 96 95 76 0.757884
w 96 95 -76 0.140107
w 96 -95 76 0.173048
w 96 -95 -76 0.265764
w 97 96 77 1
w 97 96 -77 0
w 97 -96 77 1
w 97 -96 -77 0
w 98 97 78 1
w 98 97 -78 0
w 98 -97 78 0
w 98 -97 -78 1
w 99 98 79 0
w 99 98 -79 1
w 99 -98 79 0
w 99 -98 -79 0
w 100 99 80 0
w 100 99 -80 1
w 100 -99 80 0
w 100 -99 -80 0
w 101 81 0.165138
w 101 -81 0.237681
w 102 101 82 0
w 102 101 -82 0
w 102 -101 82 0
w 102 -101 -82 1
w 103 102 83 1
w 103 102 -83 1
w 103 -102 83 1
w 103 -102 -83 0
w 104 103 84 0.131059
w 104 103 -84 0.109404
w 104 -103 84 0.470925
w 104 -103 -84 0.207264
w 105 104 85 1
w 105 104 -85 1
w 105 -104 85 1
w 105 -104 -85 0
w 106 105 86 0.664614
w 106 105 -86 0.965268
w 106 -105 86 0.00803083
w 106 -105 -86 0.358293
w 107 106 87 0.0290659
w 107 106 -87 0.215912
w 107 -106 87 0.923756
w 107 -106 -87 0.266747
w 108 107 88 0.994454
w 108 107 -88 0.256791
w 108 -107 88 0.702177
w 108 -107 -88 0.823036
w 109 108 89 1
w 109 108 -89 0
w 109 -108 89 1
w 109 -108 -89 0
w 110 109 90 0.780687
w 110 109 -90 0.986805
w 110 -109 90 0.69012
w 110 -109 -90 0.251612
w 111 110 91 1
w 111 110 -91 0
w 111 -110 91 0
w 111 -110 -91 1
w 112 111 92 0
w 112 111 -92 1
w 112 -111 92 0
w 112 -111 -92 1
w 113 112 93 0.801987
w 113 112 -93 0.225946
w 113 -112 93 0.871614
w 113 -112 -93 0.725742
w 114 113 94 0
w 114 113 -94 1
w 114 -113 94 0
w 114 -113 -94 0
w 115 114 95 1
w 115 114 -95 0
w 115 -114 95 1
w 115 -114 -95 0
w 116 115 96 1
w 116 115 -96 1
w 116 -115 96 0
w 116 -115 -96 0
w 117 116 97 1
w 117 116 -97 1
w 117 -116 97 1
w 117 -116 -97 0
w 118 117 98 1
w 118 117 -98 1
w 118 -117 98 0
w 118 -117 -98 0
w 119 118 99 1
w 119 118 -99 0
w 119 -118 99 0
w 119 -118 -99 1
w 120 119 100 0.599272
w 120 119 -100 0.672916
w 120 -119 100 0.592749
w 120 -119 -100 0.697877
w 121 101 0
w 121 -101 1
w 122 121 102 0.67676
w 122 121 -102 0.771328
w 122 -121 102 0.856008
w 122 -121 -102 0.71809
w 123 122 103 0.849752
w 123 122 -103 0.44954
w 123 -122 103 0.66862
w 123 -122 -103 0.0375637
w 124 123 104 0
w 124 123 -104 1
w 124 -123 104 0
w 124 -123 -104 0
w 125 124 105 0
w 125 124 -105 0
w 125 -124 105 1
w 125 -124 -105 1
w 126 125 106 1
w 126 125 -106 0
w 126 -125 106 1
w 126 -125 -106 1
w 127 126 107 0.615414
w 127 126 -107 0.0797285
w 127 -126 107 0.847511
w 127 -126 -107 0.344588
w 128 127 108 0.524271
w 128 127 -108 0.115916
w 128 -127 108 0.784807
w 128 -127 -108 0.242361
w 129 128 109 0.634558
w 129 128 -109 0.691901
w 129 -128 109 0.378704
w 129 -128 -109 0.672122
w 130 129 110 0.350844
w 130 129 -110 0.448581
w 130 -129 110 0.459743
w 130 -129 -110 0.704606
w 131 130 111 1
w 131 130 -111 0
w 131 -130 111 1
w 131 -130 -111 1
w 132 131 112 1
w 132 131 -112 0
w 132 -131 112 0
w 132 -131 -112 0
w 133 132 113 1
w 133 132 -113 0
w 133 -132 113 1
w 133 -132 -113 1
w 134 133 114 0
w 134 133 -114 0
w 134 -133 114 1
w 134 -133 -114 1
w 135 134 115 0.969685
w 135 134 -115 0.880309
w 135 -134 115 0.384942
w 135 -134 -115 0.348389
w 136 135 116 0.271705
w 136 135 -116 0.699233
w 136 -135 116 0.00101254
w 136 -135 -116 0.731448
w 137 136 117 0
w 137 136 -117 0
w 137 -136 117 0
w 137 -136 -117 1
w 138 137 118 0.376282
w 138 137 -118 0.29643
w 138 -137 118 0.798249
w 138 -137 -118 0.823816
w 139 138 119 0
w 139 138 -119 1
w 139 -138 119 0
w 139 -138 -119 1
w 140 139 120 0.422894
w 140 139 -120 0.243755
w 140 -139 120 0.279801
w 140 -139 -120 0.682495
w 141 121 1
w 141 -121 0
w 142 141 122 0.369815
w 142 141 -122 0.357784
w 142 -141 122 0.000569074
w 142 -141 -122 0.922246
w 143 142 123 0.699802
w 143 142 -123 0.923258
w 143 -142 123 0.360937
w 143 -142 -123 0.103641
w 144 143 124 0
w 144 143 -124 1
w 144 -143 124 1
w 144 -143 -124 0
w 145 144 125 1
w 145 144 -125 0
w 145 -144 125 0
w 145 -144 -125 1
w 146 145 126 0.09365
w 146 145 -126 0.268222
w 146 -145 126 0.360044
w 146 -145 -126 0.922772
w 147 146 127 0.603799
w 147 146 -127 0.202572
w 147 -146 127 0.373612
w 147 -146 -127 0.093305
w 148 147 128 1
w 148 147 -128 0
w 148 -147 128 1
w 148 -147 -128 0
w 149 148 129 0
w 149 148 -129 0
w 149 -148 129 1
w 149 -148 -129 0
w 150 149 130 0.38568
w 150 149 -130 0.324258
w 150 -149 130 0.820642
w 150 -149 -130 0.59815
w 151 150 131 0.187762
w 151 150 -131 0.107051
w 151 -150 131 0.179143
w 151 -150 -131 0.378699
w 152 151 132 1
w 152 151 -132 0
w 152 -151 132 1
w 152 -151 -132 0
w 153 152 133 0
w 153 152 -133 0
w 153 -152 133 1
w 153 -152 -133 0
w 154 153 134 0.454806
w 154 153 -134 0.276644
w 154 -153 134 0.306304
w 154 -153 -134 0.481167
w 155 154 135 0.468991
w 155 154 -135 0.20733
w 155 -154 135 0.970633
w 155 -154 -135 0.992614
w 156 155 136 1
w 156 155 -136 1
w 156 -155 136 0
w 156 -155 -136 1
w 157 156 137 0
w 157 156 -137 0
w 157 -156 137 1
w 157 -156 -137 1
w 158 157 138 0
w 158 157 -138 1
w 158 -157 138 0
w 158 -157 -138 1
w 159 158 139 0
w 159 158 -139 1
w 159 -158 139 1
w 159 -158 -139 0
w 160 159 140 0.662507
w 160 159 -140 0.461086
w 160 -159 140 0.0317781
w 160 -159 -140 0.968812
w 161 141 0.693788
w 161 -141 0.437803
w 162 161 142 0
w 162 161 -142 1
w 162 -161 142 1
w 162 -161 -142 1
w 163 162 143 0.0444947
w 163 162 -143 0.975194
w 163 -162 143 0.916739
w 163 -162 -143 0.0900339
w 164 163 144 1
w 164 163 -144 1
w 164 -163 144 0
w 164 -163 -144 1
w 165 164 145 0
w 165 164 -145 0
w 165 -164 145 1
w 165 -164 -145 0
w 166 165 146 0.591968
w 166 165 -146 0.299691
w 166 -165 146 0.288433
w 166 -165 -146 0.254475
w 167 166 147 0.320211
w 167 166 -147 0.223287
w 167 -166 147 0.70303
w 167 -166 -147 0.0139982
w 168 167 148 0.852613
w 168 167 -148 0.678418
w 168 -167 148 0.0915062
w 168 -167 -148 0.0393312
w 169 168 149 0.838796
w 169 168 -149 0.0838259
w 169 -168 149 0.674345
w 169 -168 -149 0.755535
w 170 169 150 0
w 170 169 -150 1
w 170 -169 150 0
w 170 -169 -150 0
w 171 170 151 1
w 171 170 -151 0
w 171 -170 151 1
w 171 -170 -151 0
w 172 171 152 0.516156
w 172 171 -152 0.393526
w 172 -171 152 0.214585
w 172 -171 -152 0.804589
w 173 172 153 0.975362
w 173 172 -153 0.1248
w 173 -172 153 0.871288
w 173 -172 -153 0.678392
w 174 173 154 0
w 174 173 -154 1
w 174 -173 154 0
w 174 -173 -154 0
w 175 174 155 0.516367
w 175 174 -155 0.462679
w 175 -174 155 0.654163
w 175 -174 -155 0.190712
w 176 175 156 0
w 176 175 -156 1
w 176 -175 156 1
w 176 -175 -156 1
w 177 176 157 0.615146
w 177 176 -157 0.428582
w 177 -176 157 0.613105
w 177 -176 -157 0.416704
w 178 177 158 0
w 178 177 -158 0
w 178 -177 158 1
w 178 -177 -158 0
w 179 178 159 0
w 179 178 -159 1
w 179 -178 159 0
w 179 -178 -159 0
w 180 179 160 0
w 180 179 -160 1
w 180 -179 160 1
w 180 -179 -160 0
w 181 161 1
w 181 -161 0
w 182 181 162 0.96732
w 182 181 -162 0.721742
w 182 -181 162 0.166672
w 182 -181 -162 0.795342
w 183 182 163 0.405753
w 183 182 -163 0.311497
w 183 -182 163 0.430606
w 183 -182 -163 0.0360012
w 184 183 164 0.859188
w 184 183 -164 0.649107
w 184 -183 164 0.343347
w 184 -183 -164 0.202663
w 185 184 165 0.153577
w 185 184 -165 0.760723
w 185 -184 165 0.712219
w 185 -184 -165 0.611808
w 186 185 166 1
w 186 185 -166 0
w 186 -185 166 0
w 186 -185 -166 0
w 187 186 167 0.248781
w 187 186 -167 0.98298
w 187 -186 167 0.289003
w 187 -186 -167 0.561938
w 188 187 168 0.237461
w 188 187 -168 0.529257
w 188 -187 168 0.235753
w 188 -187 -168 0.404133
w 189 188 169 0
w 189 188 -169 1
w 189 -188 169 1
w 189 -188 -169 1
w 190 189 170 0.562739
w 190 189 -170 0.149053
w 190 -189 170 0.494994
w 190 -189 -170 0.906085
w 191 190 171 1
w 191 190 -171 1
w 191 -190 171 0
w 191 -190 -171 1
w 192 191 172 0.406585
w 192 191 -172 0.75645
w 192 -191 172 0.612798
w 192 -191 -172 0.912545
w 193 192 173 0.416021
w 193 192 -173 0.161326
w 193 -192 173 0.707747
w 193 -192 -173 0.705024
w 194 193 174 0.221757
w 194 193 -174 0.942485
w 194 -193 174 0.252521
w 194 -193 -174 0.45751
w 195 194 175 0
w 195 194 -175 1
w 195 -194 175 1
w 195 -194 -175 1
w 196 195 176 0.00239287
w 196 195 -176 0.775955
w 196 -195 176 0.755688
w 196 -195 -176 0.497387
w 197 196 177 0.107404
w 197 196 -177 0.77075
w 197 -196 177 0.741702
w 197 -196 -177 0.219843
w 198 197 178 0.413173
w 198 197 -178 0.626428
w 198 -197 178 0.512782
w 198 -197 -178 0.0259706
w 199 198 179 0.237548
w 199 198 -179 0.441992
w 199 -198 179 0.700299
w 199 -198 -179 0.945295
w 200 199 180 1
w 200 199 -180 0
w 200 -199 180 0
w 200 -199 -180 0
w 201 181 0.43612
w 201 -181 0.253204
w 202 201 182 0.592625
w 202 201 -182 0.466421
w 202 -201 182 0.547968
w 202 -201 -182 0.595018
w 203 202 183 0
w 203 202 -183 0
w 203 -202 183 1
w 203 -202 -183 0
w 204 203 184 0.666118
w 204 203 -184 0.630902
w 204 -203 184 0.619486
w 204 -203 -184 0.0792909
w 205 204 185 0
w 205 204 -185 1
w 205 -204 185 1
w 205 -204 -185 1
w 206 205 186 0.496603
w 206 205 -186 0.315111
w 206 -205 186 0.694269
w 206 -205 -186 0.920166
w 207 206 187 0
w 207 206 -187 1
w 207 -206 187 1
w 207 -206 -187 1
w 208 207 188 0.0480588
w 208 207 -188 0.812515
w 208 -207 188 0.315875
w 208 -207 -188 0.596026
w 209 208 189 0
w 209 208 -189 1
w 209 -208 189 1
w 209 -208 -189 1
w 210 209 190 1
w 210 209 -190 0
w 210 -209 190 0
w 210 -209 -190 0
w 211 210 191 1
w 211 210 -191 1
w 211 -210 191 0
w 211 -210 -191 0
w 212 211 192 0
w 212 211 -192 0
w 212 -211 192 1
w 212 -211 -192 0
w 213 212 193 1
w 213 212 -193 1
w 213 -212 193 1
w 213 -212 -193 0
w 214 213 194 0.436722
w 214 213 -194 0.391034
w 214 -213 194 0.173626
w 214 -213 -194 0.0327487
w 215 214 195 0.731876
w 215 214 -195 0.93243
w 215 -214 195 0.298504
w 215 -214 -195 0.214542
w 216 215 196 1
w 216 215 -196 0
w 216 -215 196 1
w 216 -215 -196 1
w 217 216 197 0.383788
w 217 216 -197 0.759023
w 217 -216 197 0.924737
w 217 -216 -197 0.379066
w 218 217 198 0
w 218 217 -198 0
w 218 -217 198 1
w 218 -217 -198 0
w 219 218 199 1
w 219 218 -199 0
w 219 -218 199 0
w 219 -218 -199 1
w 220 219 200 0
w 220 219 -200 0
w 220 -219 200 1
w 220 -219 -200 0
w 221 201 0.0545469
w 221 -201 0.115963
w 222 221 202 0.269089
w 222 221 -202 0.359134
w 222 -221 202 0.467034
w 222 -221 -202 0.632415
w 223 222 203 0.11121
w 223 222 -203 0.223817
w 223 -222 203 0.927737
w 223 -222 -203 0.870233
w 224 223 204 1
w 224 223 -204 1
w 224 -223 204 1
w 224 -223 -204 0
w 225 224 205 1
w 225 224 -205 0
w 225 -224 205 0
w 225 -224 -205 1
w 226 225 206 0.196837
w 226 225 -206 0.390214
w 226 -225 206 0.901082
w 226 -225 -206 0.34762
w 227 226 207 1
w 227 226 -207 0
w 227 -226 207 0
w 227 -226 -207 0
w 228 227 208 0.410953
w 228 227 -208 0.547388
w 228 -227 208 0.00624894
w 228 -227 -208 0.877987
w 229 228 209 0
w 229 228 -209 0
w 229 -228 209 0
w 229 -228 -209 1
w 230 229 210 0.784737
w 230 229 -210 0.973349
w 230 -229 210 0.506055
w 230 -229 -210 0.962487
w 231 230 211 0
w 231 230 -211 0
w 231 -230 211 1
w 231 -230 -211 1
w 232 231 212 1
w 232 231 -212 1
w 232 -231 212 0
w 232 -231 -212 1
w 233 232 213 1
w 233 232 -213 0
w 233 -232 213 0
w 233 -232 -213 1
w 234 233 214 0
w 234 233 -214 0
w 234 -233 214 1
w 234 -233 -214 1
w 235 234 215 0
w 235 234 -215 1
w 235 -234 215 1
w 235 -234 -215 0
w 236 235 216 1
w 236 235 -216 1
w 236 -235 216 0
w 236 -235 -216 1
w 237 236 217 0
w 237 236 -217 1
w 237 -236 217 1
w 237 -236 -217 1
w 238 237 218 0.716335
w 238 237 -218 0.672802
w 238 -237 218 0.823785
w 238 -237 -218 0.792686
w 239 238 219 0.225584
w 239 238 -219 0.09279
w 239 -238 219 0.519876
w 239 -238 -219 0.232898
w 240 239 220 0.856104
w 240 239 -220 0.651165
w 240 -239 220 0.796983
w 240 -239 -220 0.198581
w 241 221 0.102578
w 241 -221 0.0912555
w 242 241 222 1
w 242 241 -222 0
w 242 -241 222 0
w 242 -241 -222 0
w 243 242 223 0.495986
w 243 242 -223 0.840625
w 243 -242 223 0.735042
w 243 -242 -223 0.744945
w 244 243 224 0
w 244 243 -224 0
w 244 -243 224 0
w 244 -243 -224 1
w 245 244 225 0
w 245 244 -225 1
w 245 -244 225 1
w 245 -244 -225 0
w 246 245 226 0.630846
w 246 245 -226 0.251027
w 246 -245 226 0.549111
w 246 -245 -226 0.48695
w 247 246 227 0.346094
w 247 246 -227 0.685531
w 247 -246 227 0.849612
w 247 -246 -227 0.448672
w 248 247 228 0.0824847
w 248 247 -228 0.260464
w 248 -247 228 0.23865
w 248 -247 -228 0.46024
w 249 248 229 0
w 249 248 -229 1
w 249 -248 229 1
w 249 -248 -229 1
w 250 249 230 0.622463
w 250 249 -230 0.867009
w 250 -249 230 0.308577
w 250 -249 -230 0.591222
w 251 250 231 0.588785
w 251 250 -231 0.383767
w 251 -250 231 0.64458
w 251 -250 -231 0.699755
w 252 251 232 1
w 252 251 -232 0
w 252 -251 232 1
w 252 -251 -232 1
w 253 252 233 0.555115
w 253 252 -233 0.417703
w 253 -252 233 0.503082
w 253 -252 -233 0.404727
w 254 253 234 0.279868
w 254 253 -234 0.487212
w 254 -253 234 0.12684
w 254 -253 -234 0.518518
w 255 254 235 0.460486
w 255 254 -235 0.374378
w 255 -254 235 0.903677
w 255 -254 -235 0.634757
w 256 255 236 0.604847
w 256 255 -236 0.25722
w 256 -255 236 0.832289
w 256 -255 -236 0.913424
w 257 256 237 0.69174
w 257 256 -237 0.502208
w 257 -256 237 0.232209
w 257 -256 -237 0.33632
w 258 257 238 0
w 258 257 -238 0
w 258 -257 238 1
w 258 -257 -238 1
w 259 258 239 0.350115
w 259 258 -239 0.842141
w 259 -258 239 0.34813
w 259 -258 -239 0.853197
w 260 259 240 1
w 260 259 -240 1
w 260 -259 240 0
w 260 -259 -240 1
w 261 241 0.681531
w 261 -241 0.80183
w 262 261 242 0
w 262 261 -242 0
w 262 -261 242 0
w 262 -261 -242 1
w 263 262 243 0.82353
w 263 262 -243 0.103479
w 263 -262 243 0.542248
w 263 -262 -243 0.51527
w 264 263 244 0.774457
w 264 263 -244 0.85159
w 264 -263 244 0.807651
w 264 -263 -244 0.408561
w 265 264 245 0.340216
w 265 264 -245 0.695588
w 265 -264 245 0.640835
w 265 -264 -245 0.690331
w 266 265 246 0.988965
w 266 265 -246 0.543528
w 266 -265 246 0.784598
w 266 -265 -246 0.20347
w 267 266 247 0.518678
w 267 266 -247 0.544815
w 267 -266 247 0.328175
w 267 -266 -247 0.200209
w 268 267 248 1
w 268 267 -248 0
w 268 -267 248 1
w 268 -267 -248 1
w 269 268 249 0.477039
w 269 268 -249 0.168907
w 269 -268 249 0.0789517
w 269 -268 -249 0.0192877
w 270 269 250 0.684639
w 270 269 -250 0.793745
w 270 -269 250 0.535768
w 270 -269 -250 0.49229
w 271 270 251 0
w 271 270 -251 1
w 271 -270 251 1
w 271 -270 -251 1
w 272 271 252 0.435623
w 272 271 -252 0.875976
w 272 -271 252 0.0663642
w 272 -271 -252 0.220221
w 273 272 253 1
w 273 272 -253 1
w 273 -272 253 0
w 273 -272 -253 1
w 274 273 254 0.970906
w 274 273 -254 0.425267
w 274 -273 254 0.724525
w 274 -273 -254 0.754138
w 275 274 255 0.699997
w 275 274 -255 0.231178
w 275 -274 255 0.939551
w 275 -274 -255 0.778949
w 276 275 256 0
w 276 275 -256 1
w 276 -275 256 1
w 276 -275 -256 1
w 277 276 257 0.246516
w 277 276 -257 0.405671
w 277 -276 257 0.788384
w 277 -276 -257 0.14441
w 278 277 258 1
w 278 277 -258 1
w 278 -277 258 0
w 278 -277 -258 0
w 279 278 259 0.248104
w 279 278 -259 0.120541
w 279 -278 259 0.539152
w 279 -278 -259 0.872365
w 280 279 260 1
w 280 279 -260 0
w 280 -279 260 1
w 280 -279 -260 1
w 281 261 0.387584
w 281 -261 0.902781
w 282 281 262 0.327135
w 282 281 -262 0.681731
w 282 -281 262 0.0790516
w 282 -281 -262 0.950862
w 283 282 263 1
w 283 282 -263 0
w 283 -282 263 0
w 283 -282 -263 0
w 284 283 264 0.889581
w 284 283 -264 0.514187
w 284 -283 264 0.808712
w 284 -283 -264 0.200801
w 285 284 265 1
w 285 284 -265 1
w 285 -284 265 0
w 285 -284 -265 1
w 286 285 266 0.433625
w 286 285 -266 0.0978387
w 286 -285 266 0.8906
w 286 -285 -266 0.911885
w 287 286 267 0.50754
w 287 286 -267 0.114669
w 287 -286 267 0.538518
w 287 -286 -267 0.895124
w 288 287 268 0
w 288 287 -268 1
w 288 -287 268 0
w 288 -287 -268 0
w 289 288 269 1
w 289 288 -269 0
w 289 -288 269 0
w 289 -288 -269 0
w 290 289 270 0.835278
w 290 289 -270 0.453382
w 290 -289 270 0.60822
w 290 -289 -270 0.0360789
w 291 290 271 0.585589
w 291 290 -271 0.614465
w 291 -290 271 0.442076
w 291 -290 -271 0.811063
w 292 291 272 1
w 292 291 -272 0
w 292 -291 272 1
w 292 -291 -272 1
w 293 292 273 0.902255
w 293 292 -273 0.388529
w 293 -292 273 0.606654
w 293 -292 -273 0.919706
w 294 293 274 0.828913
w 294 293 -274 0.618887
w 294 -293 274 0.20179
w 294 -293 -274 0.00203349
w 295 294 275 1
w 295 294 -275 0
w 295 -294 275 0
w 295 -294 -275 1
w 296 295 276 1
w 296 295 -276 1
w 296 -295 276 1
w 296 -295 -276 0
w 297 296 277 0.278829
w 297 296 -277 0.894904
w 297 -296 277 0.153463
w 297 -296 -277 0.0898922
w 298 297 278 1
w 298 297 -278 1
w 298 -297 278 0
w 298 -297 -278 0
w 299 298 279 0.123818
w 299 298 -279 0.719005
w 299 -298 279 0.237335
w 299 -298 -279 0.730473
w 300 299 280 0.992969
w 300 299 -280 0.559386
w 300 -299 280 0.257597
w 300 -299 -280 0.194758
w 301 281 0.720983
w 301 -281 0.965966
w 302 301 282 0.130066
w 302 301 -282 0.676368
w 302 -301 282 0.931951
w 302 -301 -282 0.374427
w 303 302 283 0.625191
w 303 302 -283 0.654867
w 303 -302 283 0.55154
w 303 -302 -283 0.90402
w 304 303 284 0.705003
w 304 303 -284 0.993912
w 304 -303 284 0.758067
w 304 -303 -284 0.734167
w 305 304 285 0.170355
w 305 304 -285 0.550917
w 305 -304 285 0.841512
w 305 -304 -285 0.294173
w 306 305 286 1
w 306 305 -286 1
w 306 -305 286 0
w 306 -305 -286 1
w 307 306 287 0.16623
w 307 306 -287 0.266574
w 307 -306 287 0.145451
w 307 -306 -287 0.887213
w 308 307 288 0
w 308 307 -288 1
w 308 -307 288 1
w 308 -307 -288 0
w 309 308 289 1
w 309 308 -289 0
w 309 -308 289 0
w 309 -308 -289 1
w 310 309 290 0
w 310 309 -290 1
w 310 -309 290 1
w 310 -309 -290 0
w 311 310 291 0.440162
w 311 310 -291 0.524766
w 311 -310 291 0.290688
w 311 -310 -291 0.281674
w 312 311 292 0.56061
w 312 311 -292 0.36052
w 312 -311 292 0.843585
w 312 -311 -292 0.469243
w 313 312 293 0
w 313 312 -293 1
w 313 -312 293 1
w 313 -312 -293 0
w 314 313 294 0.931449
w 314 313 -294 0.565449
w 314 -313 294 0.539965
w 314 -313 -294 0.840357
w 315 314 295 0
w 315 314 -295 1
w 315 -314 295 1
w 315 -314 -295 0
w 316 315 296 0.492849
w 316 315 -296 0.57459
w 316 -315 296 0.895623
w 316 -315 -296 0.940305
w 317 316 297 0.635395
w 317 316 -297 0.380466
w 317 -316 297 0.453767
w 317 -316 -297 0.926083
w 318 317 298 0.272706
w 318 317 -298 0.486694
w 318 -317 298 0.0226599
w 318 -317 -298 0.116291
w 319 318 299 0.454995
w 319 318 -299 0.543907
w 319 -318 299 0.591409
w 319 -318 -299 0.153904
w 320 319 300 0
w 320 319 -300 1
w 320 -319 300 1
w 320 -319 -300 1
w 321 301 0.172204
w 321 -301 0.585733
w 322 321 302 0.211509
w 322 321 -302 0.563978
w 322 -321 302 0.405146
w 322 -321 -302 0.704358
w 323 322 303 1
w 323 322 -303 0
w 323 -322 303 0
w 323 -322 -303 0
w 324 323 304 0
w 324 323 -304 1
w 324 -323 304 1
w 324 -323 -304 1
w 325 324 305 1
w 325 324 -305 0
w 325 -324 305 1
w 325 -324 -305 0
w 326 325 306 0
w 326 325 -306 1
w 326 -325 306 1
w 326 -325 -306 1
w 327 326 307 1
w 327 326 -307 0
w 327 -326 307 0
w 327 -326 -307 1
w 328 327 308 1
w 328 327 -308 1
w 328 -327 308 0
w 328 -327 -308 1
w 329 328 309 1
w 329 328 -309 1
w 329 -328 309 1
w 329 -328 -309 0
w 330 329 310 1
w 330 329 -310 0
w 330 -329 310 1
w 330 -329 -310 1
w 331 330 311 0.408697
w 331 330 -311 0.245997
w 331 -330 311 0.00316579
w 331 -330 -311 0.573622
w 332 331 312 0.899453
w 332 331 -312 0.89245
w 332 -331 312 0.271449
w 332 -331 -312 0.909835
w 333 332 313 0
w 333 332 -313 1
w 333 -332 313 0
w 333 -332 -313 1
w 334 333 314 0.471543
w 334 333 -314 0.588273
w 334 -333 314 0.638607
w 334 -333 -314 0.721708
w 335 334 315 0.591328
w 335 334 -315 0.272642
w 335 -334 315 0.916351
w 335 -334 -315 0.611617
w 336 335 316 0.92785
w 336 335 -316 0.153241
w 336 -335 316 0.109088
w 336 -335 -316 0.626619
w 337 336 317 0
w 337 336 -317 0
w 337 -336 317 1
w 337 -336 -317 0
w 338 337 318 0.435139
w 338 337 -318 0.709995
w 338 -337 318 0.501388
w 338 -337 -318 0.706588
w 339 338 319 0.798021
w 339 338 -319 0.231672
w 339 -338 319 0.194108
w 339 -338 -319 0.424544
w 340 339 320 0
w 340 339 -320 0
w 340 -339 320 1
w 340 -339 -320 0
w 341 321 0.700849
w 341 -321 0.248496
w 342 341 322 0.6172
w 342 341 -322 0.860113
w 342 -341 322 0.650178
w 342 -341 -322 0.54505
w 343 342 323 1
w 343 342 -323 0
w 343 -342 323 1
w 343 -342 -323 1
w 344 343 324 0
w 344 343 -324 1
w 344 -343 324 0
w 344 -343 -324 0
w 345 344 325 0
w 345 344 -325 0
w 345 -344 325 1
w 345 -344 -325 1
w 346 345 326 0.901116
w 346 345 -326 0.539875
w 346 -345 326 0.793156
w 346 -345 -326 0.919678
w 347 346 327 0
w 347 346 -327 1
w 347 -346 327 0
w 347 -346 -327 1
w 348 347 328 0.944194
w 348 347 -328 0.882074
w 348 -347 328 0.685457
w 348 -347 -328 0.594372
w 349 348 329 1
w 349 348 -329 1
w 349 -348 329 0
w 349 -348 -329 0
w 350 349 330 0.805776
w 350 349 -330 0.438232
w 350 -349 330 0.297464
w 350 -349 -330 0.621698
w 351 350 331 1
w 351 350 -331 1
w 351 -350 331 0
w 351 -350 -331 0
w 352 351 332 0
w 352 351 -332 1
w 352 -351 332 1
w 352 -351 -332 0
w 353 352 333 0.0301759
w 353 352 -333 0.457163
w 353 -352 333 0.489292
w 353 -352 -333 0.0839326
w 354 353 334 0.314635
w 354 353 -334 0.0281263
w 354 -353 334 0.604111
w 354 -353 -334 9.16971e-05
w 355 354 335 0.0312342
w 355 354 -335 0.698902
w 355 -354 335 0.976136
w 355 -354 -335 0.630026
w 356 355 336 0.896416
w 356 355 -336 0.435801
w 356 -355 336 0.338203
w 356 -355 -336 0.19388
w 357 356 337 1
w 357 356 -337 1
w 357 -356 337 0
w 357 -356 -337 0
w 358 357 338 0.0508451
w 358 357 -338 0.0381374
w 358 -357 338 0.662938
w 358 -357 -338 0.645059
w 359 358 339 0.575382
w 359 358 -339 0.675235
w 359 -358 339 0.388438
w 359 -358 -339 0.0646737
w 360 359 340 0.110475
w 360 359 -340 0.379309
w 360 -359 340 0.787294
w 360 -359 -340 0.714586
w 361 341 0
w 361 -341 1
w 362 361 342 0.0783024
w 362 361 -342 0.385928
w 362 -361 342 0.375846
w 362 -361 -342 0.978274
w 363 362 343 0
w 363 362 -343 1
w 363 -362 343 0
w 363 -362 -343 1
w 364 363 344 0.0547462
w 364 363 -344 0.865652
w 364 -363 344 0.703368
w 364 -363 -344 0.724918
w 365 364 345 0.741505
w 365 364 -345 0.387856
w 365 -364 345 0.561556
w 365 -364 -345 0.672781
w 366 365 346 0.236791
w 366 365 -346 0.0612189
w 366 -365 346 0.0279115
w 366 -365 -346 0.995958
w 367 366 347 1
w 367 366 -347 0
w 367 -366 347 1
w 367 -366 -347 1
w 368 367 348 0
w 368 367 -348 0
w 368 -367 348 1
w 368 -367 -348 0
w 369 368 349 0.819595
w 369 368 -349 0.159674
w 369 -368 349 0.337541
w 369 -368 -349 0.688741
w 370 369 350 0.392287
w 370 369 -350 0.554393
w 370 -369 350 0.628254
w 370 -369 -350 0.117205
w 371 370 351 0
w 371 370 -351 0
w 371 -370 351 1
w 371 -370 -351 1
w 372 371 352 1
w 372 371 -352 1
w 372 -371 352 0
w 372 -371 -352 0
w 373 372 353 1
w 373 372 -353 0
w 373 -372 353 1
w 373 -372 -353 0
w 374 373 354 1
w 374 373 -354 0
w 374 -373 354 1
w 374 -373 -354 1
w 375 374 355 1
w 375 374 -355 1
w 375 -374 355 0
w 375 -374 -355 1
w 376 375 356 0
w 376 375 -356 0
w 376 -375 356 0
w 376 -375 -356 1
w 377 376 357 1
w 377 376 -357 1
w 377 -376 357 0
w 377 -376 -357 0
w 378 377 358 0.637085
w 378 377 -358 0.627042
w 378 -377 358 0.998383
w 378 -377 -358 0.902281
w 379 378 359 0.901813
w 379 378 -359 0.950729
w 379 -378 359 0.064228
w 379 -378 -359 0.591864
w 380 379 360 0
w 380 379 -360 1
w 380 -379 360 0
w 380 -379 -360 1
w 381 361 0.694465
w 381 -361 0.281222
w 382 381 362 0
w 382 381 -362 0
w 382 -381 362 1
w 382 -381 -362 1
w 383 382 363 1
w 383 382 -363 0
w 383 -382 363 1
w 383 -382 -363 0
w 384 383 364 0.159097
w 384 383 -364 0.700595
w 384 -383 364 0.190256
w 384 -383 -364 0.796183
w 385 384 365 1
w 385 384 -365 0
w 385 -384 365 1
w 385 -384 -365 0
w 386 385 366 0.294359
w 386 385 -366 0.682316
w 386 -385 366 0.841415
w 386 -385 -366 0.152422
w 387 386 367 0.8541
w 387 386 -367 0.812267
w 387 -386 367 0.374164
w 387 -386 -367 0.548565
w 388 387 368 1
w 388 387 -368 1
w 388 -387 368 1
w 388 -387 -368 0
w 389 388 369 1
w 389 388 -369 0
w 389 -388 369 1
w 389 -388 -369 0
w 390 389 370 0.730038
w 390 389 -370 0.0910245
w 390 -389 370 0.63708
w 390 -389 -370 0.920293
w 391 390 371 0.964717
w 391 390 -371 0.108932
w 391 -390 371 0.585672
w 391 -390 -371 0.194849
w 392 391 372 0
w 392 391 -372 1
w 392 -391 372 1
w 392 -391 -372 1
w 393 392 373 0.710853
w 393 392 -373 0.93038
w 393 -392 373 0.453898
w 393 -392 -373 0.0850165
w 394 393 374 1
w 394 393 -374 1
w 394 -393 374 1
w 394 -393 -374 0
w 395 394 375 0.129042
w 395 394 -375 0.372892
w 395 -394 375 0.38381
w 395 -394 -375 0.170997
w 396 395 376 0
w 396 395 -376 0
w 396 -395 376 0
w 396 -395 -376 1
w 397 396 377 0.283051
w 397 396 -377 0.922093
w 397 -396 377 0.930259
w 397 -396 -377 0.868722
w 398 397 378 1
w 398 397 -378 0
w 398 -397 378 1
w 398 -397 -378 0
w 399 398 379 0
w 399 398 -379 0
w 399 -398 379 1
w 399 -398 -379 1
w 400 399 380 0.589193
w 400 399 -380 0.249066
w 400 -399 380 0.369245
w 400 -399 -380 0.330489